5578300
43,34,23,56,7,10,51,53,35,12,32,8,58,46,26,45,16,20,40,33,52,3,9,65,17,50,59,29,63,44,14,39,68,62,2,27,60,1,19,48,18,37,4,42,67,11,47,55,36,64,13,49,30,54,25,5,28,24,41,15,22,57,31,38,6,21,61,66